Minimize

121.066 y_0_1 + 92.85 y_0_2 + 140.543 y_0_3 + 159.947 y_0_5 + 121.066 y_1_0 + 150.0 y_1_2 + 104.211 y_1_9 + 92.85 y_2_0 + 150.0 y_2_1 + 140.543 y_3_0 + 123.415 y_3_5 + 207.838 y_3_7 + 108.12 y_3_8 + 51.523 y_4_5 + 201.029 y_4_6 + 138.0 y_4_9 + 159.947 y_5_0 + 123.415 y_5_3 + 51.523 y_5_4 + 260.415 y_5_6 + 97.306 y_5_7 + 201.029 y_6_4 + 260.415 y_6_5 + 167.624 y_6_7 + 207.838 y_7_3 + 97.306 y_7_5 + 167.624 y_7_6 + 93.161 y_7_8 + 108.12 y_8_3 + 93.161 y_8_7 + 104.211 y_9_1 + 138.0 y_9_4


Subject To

a0: y_1_0 + y_2_0 + y_3_0 + y_5_0 = 1
a1: y_0_1 + y_2_1 + y_9_1 = 1
a2: y_0_2 + y_1_2 = 1
a3: y_0_3 + y_5_3 + y_7_3 + y_8_3 = 1
a4: y_5_4 + y_6_4 + y_9_4 = 1
a5: y_0_5 + y_3_5 + y_4_5 + y_6_5 + y_7_5 = 1
a6: y_4_6 + y_5_6 + y_7_6 = 1
a7: y_3_7 + y_5_7 + y_6_7 + y_8_7 = 1
a8: y_3_8 + y_7_8 = 1
a9: y_1_9 + y_4_9 = 1
b0: y_0_1 + y_0_2 + y_0_3 + y_0_5 = 1
b1: y_1_0 + y_1_2 + y_1_9 = 1
b2: y_2_0 + y_2_1 = 1
b3: y_3_0 + y_3_5 + y_3_7 + y_3_8 = 1
b4: y_4_5 + y_4_6 + y_4_9 = 1
b5: y_5_0 + y_5_3 + y_5_4 + y_5_6 + y_5_7 = 1
b6: y_6_4 + y_6_5 + y_6_7 = 1
b7: y_7_3 + y_7_5 + y_7_6 + y_7_8 = 1
b8: y_8_3 + y_8_7 = 1
b9: y_9_1 + y_9_4 = 1
c0: x_1 - x_2 + 10 y_1_2 <= 8
c1: x_1 - x_9 + 10 y_1_9 <= 8
c2: x_2 - x_1 + 10 y_2_1 <= 8
c3: x_3 - x_5 + 10 y_3_5 <= 8
c4: x_3 - x_7 + 10 y_3_7 <= 8
c5: x_3 - x_8 + 10 y_3_8 <= 8
c6: x_4 - x_5 + 10 y_4_5 <= 8
c7: x_4 - x_6 + 10 y_4_6 <= 8
c8: x_4 - x_9 + 10 y_4_9 <= 8
c9: x_5 - x_3 + 10 y_5_3 <= 8
c10: x_5 - x_4 + 10 y_5_4 <= 8
c11: x_5 - x_6 + 10 y_5_6 <= 8
c12: x_5 - x_7 + 10 y_5_7 <= 8
c13: x_6 - x_4 + 10 y_6_4 <= 8
c14: x_6 - x_5 + 10 y_6_5 <= 8
c15: x_6 - x_7 + 10 y_6_7 <= 8
c16: x_7 - x_3 + 10 y_7_3 <= 8
c17: x_7 - x_5 + 10 y_7_5 <= 8
c18: x_7 - x_6 + 10 y_7_6 <= 8
c19: x_7 - x_8 + 10 y_7_8 <= 8
c20: x_8 - x_3 + 10 y_8_3 <= 8
c21: x_8 - x_7 + 10 y_8_7 <= 8
c22: x_9 - x_1 + 10 y_9_1 <= 8
c23: x_9 - x_4 + 10 y_9_4 <= 8
d0: x_0 = 0



Bounds

x_0 <= 10
x_1 <= 10
x_2 <= 10
x_3 <= 10
x_4 <= 10
x_5 <= 10
x_6 <= 10
x_7 <= 10
x_8 <= 10
x_9 <= 10



Binary

y_0_1 y_0_2 y_0_3 y_0_5 y_1_0 y_1_2 y_1_9 y_2_0 y_2_1 y_3_0 y_3_5 y_3_7 y_3_8 y_4_5 y_4_6 y_4_9 y_5_0 y_5_3 y_5_4 y_5_6 y_5_7 y_6_4 y_6_5 y_6_7 y_7_3 y_7_5 y_7_6 y_7_8 y_8_3 y_8_7 y_9_1 y_9_4


General

 x_0 x_1 x_2 x_3 x_4 x_5 x_6 x_7 x_8 x_9

End
